<number of tasks>
28

<cycle time>
324

<task times>
1 70
2 59
3 33
4 6
5 1
6 27
7 17
8 62
9 31
10 53
11 21
12 19
13 108
14 52
15 5
16 8
17 97
18 8
19 47
20 67
21 17
22 8
23 3
24 21
25 107
26 3
27 2
28 72

<precedence relations>
1,2
1,3
1,4
1,5
1,8
1,19
1,21
1,22
1,23
1,24
1,26
2,6
2,17
3,28
4,28
5,28
6,7
7,18
8,9
9,10
10,11
10,12
11,15
12,13
13,14
13,16
14,28
15,28
16,28
17,28
18,28
19,20
20,28
21,28
22,28
23,28
24,25
25,28
26,27
27,28

<setup times forward>
1,3:11
1,4:11
1,22:4
1,23:4
1,24:11
1,26:11
2,3:11
2,4:11
2,6:11
2,9:11
2,10:11
2,11:11
2,12:11
2,13:11
2,14:4
2,15:4
2,16:4
2,17:4
2,22:4
2,23:4
2,24:11
2,25:4
2,26:11
2,27:4
3,2:11
3,5:11
3,7:7
3,8:11
3,14:15
3,15:7
3,16:7
3,17:7
3,18:7
3,19:11
3,20:11
3,21:11
3,22:7
3,23:15
3,25:7
3,27:7
3,28:7
4,2:11
4,5:11
4,7:7
4,8:11
4,14:15
4,15:7
4,16:7
4,17:7
4,18:7
4,19:11
4,20:11
4,21:11
4,22:7
4,23:15
4,25:7
4,27:7
4,28:7
5,3:11
5,4:11
5,6:11
5,7:4
5,9:11
5,10:11
5,11:11
5,12:11
5,13:11
5,14:4
5,15:4
5,16:4
5,17:4
5,18:4
5,22:4
5,23:4
5,24:11
5,25:4
5,26:11
5,27:4
5,28:4
6,5:11
6,7:7
6,8:11
6,14:15
6,15:7
6,16:7
6,17:7
6,19:11
6,20:11
6,21:11
6,22:7
6,23:15
6,25:7
6,27:7
7,3:7
7,4:7
7,5:4
7,8:4
7,9:7
7,10:7
7,11:7
7,12:7
7,13:7
7,14:8
7,19:4
7,20:4
7,21:4
7,23:8
7,24:7
7,26:7
8,3:11
8,4:11
8,6:11
8,7:4
8,9:11
8,17:4
8,18:4
8,22:4
8,23:4
8,24:11
8,25:4
8,26:11
8,27:4
9,2:11
9,5:11
9,7:7
9,17:7
9,18:7
9,19:11
9,20:11
9,21:11
9,22:7
9,23:15
9,25:7
9,27:7
10,2:11
10,5:11
10,7:7
10,17:7
10,18:7
10,19:11
10,20:11
10,21:11
10,22:7
10,23:15
10,25:7
10,27:7
11,2:11
11,5:11
11,7:7
11,14:15
11,15:7
11,16:7
11,17:7
11,18:7
11,19:11
11,20:11
11,21:11
11,22:7
11,23:15
11,25:7
11,27:7
12,2:11
12,5:11
12,7:7
12,15:7
12,17:7
12,18:7
12,19:11
12,20:11
12,21:11
12,22:7
12,23:15
12,25:7
12,27:7
13,2:11
13,5:11
13,7:7
13,14:15
13,15:7
13,16:7
13,17:7
13,18:7
13,19:11
13,20:11
13,21:11
13,22:7
13,23:15
13,25:7
13,27:7
14,2:4
14,3:15
14,4:15
14,5:4
14,6:15
14,7:8
14,11:15
14,15:8
14,16:8
14,17:8
14,18:8
14,19:4
14,20:4
14,21:4
14,22:8
14,24:15
14,25:8
14,26:15
14,27:8
14,28:8
15,2:4
15,3:7
15,4:7
15,5:4
15,6:7
15,12:7
15,13:7
15,14:8
15,19:4
15,20:4
15,21:4
15,23:8
15,24:7
15,26:7
16,2:4
16,3:7
16,4:7
16,5:4
16,6:7
16,11:7
16,14:8
16,19:4
16,20:4
16,21:4
16,23:8
16,24:7
16,26:7
17,3:7
17,4:7
17,5:4
17,6:7
17,8:4
17,9:7
17,10:7
17,11:7
17,12:7
17,13:7
17,14:8
17,19:4
17,20:4
17,21:4
17,23:8
17,24:7
17,26:7
18,3:7
18,4:7
18,5:4
18,8:4
18,9:7
18,10:7
18,11:7
18,12:7
18,13:7
18,14:8
18,19:4
18,20:4
18,21:4
18,23:8
18,24:7
18,26:7
19,3:11
19,4:11
19,6:11
19,7:4
19,9:11
19,10:11
19,11:11
19,12:11
19,13:11
19,14:4
19,15:4
19,16:4
19,17:4
19,18:4
19,22:4
19,23:4
19,24:11
19,25:4
19,26:11
19,27:4
20,3:11
20,4:11
20,6:11
20,7:4
20,9:11
20,10:11
20,11:11
20,12:11
20,13:11
20,14:4
20,15:4
20,16:4
20,17:4
20,18:4
20,22:4
20,23:4
20,24:11
20,25:4
20,26:11
20,27:4
20,28:4
21,3:11
21,4:11
21,6:11
21,7:4
21,9:11
21,10:11
21,11:11
21,12:11
21,13:11
21,14:4
21,15:4
21,16:4
21,17:4
21,18:4
21,22:4
21,23:4
21,24:11
21,25:4
21,26:11
21,27:4
21,28:4
22,2:4
22,3:7
22,4:7
22,5:4
22,6:7
22,8:4
22,9:7
22,10:7
22,11:7
22,12:7
22,13:7
22,14:8
22,19:4
22,20:4
22,21:4
22,23:8
22,24:7
22,26:7
23,2:4
23,3:15
23,4:15
23,5:4
23,6:15
23,7:8
23,8:4
23,9:15
23,10:15
23,11:15
23,12:15
23,13:15
23,15:8
23,16:8
23,17:8
23,18:8
23,19:4
23,20:4
23,21:4
23,22:8
23,24:15
23,25:8
23,26:15
23,27:8
23,28:8
24,2:11
24,5:11
24,7:7
24,8:11
24,14:15
24,15:7
24,16:7
24,17:7
24,18:7
24,19:11
24,20:11
24,21:11
24,22:7
24,23:15
24,25:7
24,27:7
25,2:4
25,3:7
25,4:7
25,5:4
25,6:7
25,8:4
25,9:7
25,10:7
25,11:7
25,12:7
25,13:7
25,14:8
25,19:4
25,20:4
25,21:4
25,23:8
25,26:7
26,2:11
26,5:11
26,7:7
26,8:11
26,14:15
26,15:7
26,16:7
26,17:7
26,18:7
26,19:11
26,20:11
26,21:11
26,22:7
26,23:15
26,25:7
26,27:7
27,2:4
27,3:7
27,4:7
27,5:4
27,6:7
27,8:4
27,9:7
27,10:7
27,11:7
27,12:7
27,13:7
27,14:8
27,19:4
27,20:4
27,21:4
27,23:8
27,24:7

<setup times backward>
2,14:4
2,23:4
3,1:11
3,2:11
3,5:11
3,7:7
3,8:11
3,14:15
3,15:7
3,16:7
3,17:7
3,18:7
3,19:11
3,20:11
3,21:11
3,22:7
3,23:15
3,25:7
3,27:7
4,1:11
4,2:11
4,5:11
4,7:7
4,8:11
4,14:15
4,15:7
4,16:7
4,17:7
4,18:7
4,19:11
4,20:11
4,21:11
4,22:7
4,23:15
4,25:7
4,27:7
5,14:4
5,23:4
6,1:11
6,2:11
6,5:11
6,8:11
6,14:15
6,15:7
6,16:7
6,17:7
6,19:11
6,20:11
6,21:11
6,22:7
6,23:15
6,25:7
6,27:7
7,1:4
7,2:4
7,5:4
7,8:4
7,14:8
7,19:4
7,20:4
7,21:4
7,23:8
8,23:4
9,1:11
9,2:11
9,5:11
9,7:7
9,8:11
9,17:7
9,18:7
9,19:11
9,20:11
9,21:11
9,22:7
9,23:15
9,25:7
9,27:7
10,1:11
10,2:11
10,5:11
10,7:7
10,8:11
10,17:7
10,18:7
10,19:11
10,20:11
10,21:11
10,22:7
10,23:15
10,25:7
10,27:7
11,1:11
11,2:11
11,5:11
11,7:7
11,8:11
11,14:15
11,16:7
11,17:7
11,18:7
11,19:11
11,20:11
11,21:11
11,22:7
11,23:15
11,25:7
11,27:7
12,1:11
12,2:11
12,5:11
12,7:7
12,8:11
12,15:7
12,17:7
12,18:7
12,19:11
12,20:11
12,21:11
12,22:7
12,23:15
12,25:7
12,27:7
13,1:11
13,2:11
13,5:11
13,7:7
13,8:11
13,15:7
13,17:7
13,18:7
13,19:11
13,20:11
13,21:11
13,22:7
13,23:15
13,25:7
13,27:7
15,1:4
15,2:4
15,5:4
15,8:4
15,14:8
15,19:4
15,20:4
15,21:4
15,23:8
16,1:4
16,2:4
16,5:4
16,8:4
16,14:8
16,19:4
16,20:4
16,21:4
16,23:8
17,1:4
17,2:4
17,5:4
17,8:4
17,14:8
17,19:4
17,20:4
17,21:4
17,23:8
18,1:4
18,2:4
18,5:4
18,8:4
18,14:8
18,19:4
18,20:4
18,21:4
18,23:8
19,14:4
19,23:4
20,14:4
20,23:4
21,14:4
21,23:4
22,1:4
22,2:4
22,5:4
22,8:4
22,14:8
22,19:4
22,20:4
22,21:4
22,23:8
24,1:11
24,2:11
24,5:11
24,7:7
24,8:11
24,14:15
24,15:7
24,16:7
24,17:7
24,18:7
24,19:11
24,20:11
24,21:11
24,22:7
24,23:15
24,27:7
25,1:4
25,2:4
25,5:4
25,8:4
25,14:8
25,19:4
25,20:4
25,21:4
25,23:8
26,1:11
26,2:11
26,5:11
26,7:7
26,8:11
26,14:15
26,15:7
26,16:7
26,17:7
26,18:7
26,19:11
26,20:11
26,21:11
26,22:7
26,23:15
26,25:7
27,1:4
27,2:4
27,5:4
27,8:4
27,14:8
27,19:4
27,20:4
27,21:4
27,23:8
28,1:4
28,2:4
28,5:4
28,8:4
28,14:8
28,19:4
28,20:4
28,21:4
28,23:8

<end>

<optimal SALBP-1 value>
4


<rand seed>
467321153

